p cnf 34 56
-6 31 0 
-12 19 0 
-21 2 9 13 0 
-16 4 10 13 0 
-22 7 0 
-9 17 0 
-14 25 0 
-32 9 0 
-20 7 0 
-24 4 0 
-1 15 0 
-11 34 0 
-27 3 7 0 
-6 19 0 
-13 16 0 
-30 12 0 
-13 26 0 
-10 16 0 
-10 26 0 
-9 32 0 
-8 26 0 
-15 1 0 
-12 30 0 
-28 5 0 
-18 3 0 
-19 6 11 12 0 
-13 21 0 
-25 2 14 0 
-7 20 0 
-3 34 0 
-12 34 0 
-34 3 11 12 0 
-11 19 0 
-10 23 0 
-31 6 0 
-7 22 0 
-29 6 0 
-4 16 0 
-23 5 10 0 
-2 21 0 
-2 25 0 
-5 23 0 
-26 3 8 10 13 0 
-17 9 11 0 
-7 27 0 
-14 33 0 
-5 28 0 
-3 26 0 
-12 33 0 
-11 17 0 
-4 24 0 
-9 21 0 
-6 29 0 
-33 12 14 0 
-3 18 0 
-3 27 0 
